16
this is a comment line where you can put something to identify the molecule later (this is a standard form of the xyz files)
C         3.11400     0.67344    -0.14931
C        -3.11400    -0.67344    -0.14931
C         2.94187    -0.67854     0.15042
C        -2.94187     0.67854     0.15042
C         1.60673    -1.07293     0.23784
C        -1.60673     1.07293     0.23784
C         0.69537     0.00000     0.00000
C        -0.69537    -0.00000     0.00000
S         1.60549     1.51920    -0.33680
S        -1.60549    -1.51920    -0.33680
H         3.78176    -1.34963     0.29919
H        -3.78176     1.34963     0.29919
H         1.26915    -2.07912     0.46093
H        -1.26915     2.07912     0.46093
H         4.04844     1.20639    -0.26745
H        -4.04844    -1.20639    -0.26745
